14° run output:
{
    "Function": "kroB1000.tsp",
    "Problem dimension": [
        974,
        104,
        286,
        21,
        61,
        847,
        464,
        507,
        540,
        77,
        52,
        325,
        92,
        207,
        776,
        892,
        822,
        244,
        324,
        619,
        350,
        466,
        940,
        294,
        623,
        212,
        338,
        270,
        750,
        25,
        722,
        826,
        109,
        840,
        893,
        175,
        176,
        38,
        737,
        108,
        29,
        170,
        656,
        220,
        99,
        299,
        819,
        139,
        688,
        850,
        602,
        754,
        288,
        391,
        394,
        195,
        65,
        851,
        289,
        279,
        564,
        115,
        385,
        753,
        333,
        734,
        671,
        424,
        554,
        588,
        673,
        281,
        95,
        756,
        639,
        365,
        406,
        82,
        794,
        727,
        285,
        666,
        715,
        318,
        93,
        6,
        786,
        861,
        375,
        448,
        100,
        841,
        562,
        629,
        402,
        75,
        953,
        541,
        58,
        374,
        905,
        952,
        873,
        429,
        539,
        920,
        161,
        587,
        158,
        614,
        771,
        968,
        96,
        216,
        672,
        536,
        763,
        203,
        238,
        209,
        977,
        513,
        531,
        265,
        471,
        963,
        219,
        248,
        343,
        620,
        475,
        463,
        418,
        442,
        49,
        314,
        604,
        193,
        137,
        713,
        547,
        515,
        603,
        605,
        557,
        275,
        966,
        263,
        647,
        101,
        906,
        736,
        186,
        355,
        655,
        90,
        369,
        542,
        18,
        927,
        420,
        706,
        113,
        792,
        484,
        808,
        528,
        634,
        242,
        643,
        373,
        371,
        678,
        991,
        438,
        912,
        589,
        816,
        164,
        956,
        296,
        262,
        961,
        692,
        663,
        954,
        383,
        896,
        509,
        628,
        626,
        773,
        71,
        904,
        273,
        813,
        910,
        367,
        976,
        941,
        834,
        590,
        476,
        305,
        252,
        980,
        521,
        206,
        978,
        253,
        495,
        982,
        458,
        73,
        802,
        427,
        280,
        759,
        984,
        584,
        803,
        85,
        227,
        793,
        718,
        726,
        633,
        72,
        67,
        660,
        344,
        234,
        508,
        320,
        204,
        751,
        616,
        987,
        88,
        764,
        134,
        766,
        527,
        923,
        916,
        147,
        311,
        323,
        894,
        687,
        356,
        938,
        752,
        644,
        698,
        526,
        120,
        568,
        488,
        125,
        918,
        732,
        441,
        943,
        821,
        895,
        806,
        789,
        701,
        529,
        447,
        315,
        469,
        852,
        258,
        708,
        217,
        757,
        379,
        532,
        730,
        347,
        334,
        630,
        880,
        881,
        949,
        798,
        519,
        403,
        979,
        998,
        436,
        612,
        668,
        283,
        670,
        352,
        274,
        127,
        477,
        205,
        423,
        151,
        919,
        235,
        664,
        1,
        360,
        827,
        156,
        231,
        401,
        799,
        728,
        627,
        631,
        14,
        40,
        341,
        470,
        232,
        842,
        178,
        141,
        830,
        907,
        112,
        514,
        812,
        300,
        361,
        456,
        680,
        641,
        452,
        598,
        567,
        126,
        30,
        787,
        936,
        996,
        277,
        942,
        559,
        353,
        520,
        348,
        615,
        266,
        62,
        404,
        640,
        16,
        35,
        328,
        740,
        473,
        607,
        828,
        846,
        376,
        930,
        872,
        900,
        694,
        742,
        865,
        148,
        676,
        839,
        36,
        709,
        246,
        859,
        474,
        335,
        581,
        891,
        398,
        114,
        765,
        243,
        173,
        870,
        27,
        659,
        608,
        368,
        560,
        69,
        811,
        200,
        268,
        985,
        972,
        3,
        181,
        41,
        801,
        359,
        260,
        593,
        731,
        397,
        165,
        182,
        236,
        744,
        546,
        121,
        835,
        393,
        931,
        444,
        658,
        710,
        196,
        64,
        636,
        525,
        155,
        215,
        544,
        378,
        11,
        33,
        132,
        711,
        596,
        5,
        810,
        313,
        775,
        635,
        435,
        697,
        690,
        685,
        646,
        211,
        472,
        572,
        762,
        874,
        577,
        855,
        807,
        788,
        254,
        53,
        960,
        417,
        106,
        0,
        171,
        405,
        169,
        592,
        989,
        316,
        790,
        738,
        720,
        255,
        944,
        675,
        94,
        579,
        450,
        669,
        506,
        884,
        580,
        392,
        408,
        566,
        412,
        613,
        929,
        986,
        565,
        782,
        339,
        637,
        307,
        116,
        174,
        177,
        667,
        864,
        271,
        390,
        410,
        110,
        946,
        221,
        800,
        399,
        804,
        747,
        247,
        20,
        26,
        298,
        187,
        278,
        191,
        489,
        449,
        780,
        552,
        326,
        345,
        455,
        501,
        682,
        222,
        363,
        434,
        845,
        162,
        925,
        866,
        395,
        102,
        290,
        308,
        796,
        781,
        548,
        43,
        433,
        415,
        843,
        56,
        259,
        632,
        131,
        574,
        649,
        202,
        973,
        876,
        39,
        24,
        197,
        883,
        496,
        13,
        293,
        84,
        59,
        461,
        583,
        674,
        498,
        256,
        42,
        387,
        133,
        237,
        276,
        887,
        777,
        890,
        854,
        533,
        650,
        551,
        848,
        576,
        2,
        743,
        836,
        79,
        543,
        609,
        990,
        805,
        60,
        712,
        959,
        908,
        76,
        909,
        282,
        611,
        354,
        844,
        662,
        190,
        510,
        779,
        767,
        210,
        487,
        194,
        123,
        610,
        303,
        517,
        425,
        534,
        875,
        331,
        51,
        922,
        993,
        967,
        955,
        926,
        882,
        569,
        638,
        386,
        443,
        124,
        553,
        142,
        699,
        218,
        440,
        885,
        863,
        154,
        932,
        122,
        719,
        901,
        7,
        969,
        815,
        748,
        625,
        130,
        686,
        249,
        451,
        950,
        198,
        431,
        358,
        999,
        185,
        17,
        778,
        735,
        913,
        575,
        213,
        74,
        833,
        824,
        934,
        245,
        362,
        535,
        512,
        337,
        9,
        419,
        327,
        23,
        783,
        224,
        407,
        599,
        903,
        494,
        384,
        994,
        192,
        860,
        377,
        50,
        15,
        322,
        582,
        729,
        480,
        661,
        621,
        330,
        223,
        951,
        717,
        538,
        80,
        445,
        483,
        411,
        502,
        849,
        758,
        364,
        55,
        103,
        332,
        878,
        295,
        642,
        570,
        888,
        858,
        504,
        129,
        749,
        921,
        823,
        144,
        136,
        400,
        594,
        83,
        382,
        160,
        138,
        257,
        12,
        665,
        817,
        522,
        988,
        774,
        230,
        871,
        550,
        366,
        428,
        761,
        48,
        81,
        809,
        143,
        563,
        118,
        971,
        721,
        111,
        518,
        47,
        983,
        915,
        617,
        545,
        380,
        739,
        241,
        745,
        500,
        853,
        838,
        481,
        723,
        340,
        465,
        825,
        493,
        769,
        239,
        45,
        70,
        172,
        351,
        422,
        867,
        724,
        772,
        704,
        372,
        229,
        856,
        902,
        287,
        591,
        992,
        107,
        233,
        814,
        439,
        167,
        284,
        140,
        911,
        597,
        179,
        746,
        877,
        159,
        964,
        19,
        837,
        797,
        914,
        468,
        208,
        437,
        180,
        453,
        329,
        677,
        63,
        267,
        150,
        44,
        57,
        304,
        312,
        128,
        606,
        336,
        624,
        10,
        4,
        818,
        163,
        768,
        357,
        310,
        31,
        8,
        573,
        105,
        421,
        199,
        228,
        302,
        119,
        975,
        795,
        432,
        482,
        691,
        657,
        785,
        153,
        957,
        272,
        388,
        760,
        523,
        939,
        831,
        571,
        251,
        492,
        705,
        291,
        446,
        168,
        346,
        166,
        54,
        679,
        945,
        183,
        321,
        292,
        689,
        491,
        28,
        117,
        226,
        696,
        981,
        68,
        97,
        889,
        716,
        511,
        899,
        86,
        66,
        770,
        879,
        995,
        868,
        505,
        457,
        886,
        381,
        652,
        309,
        430,
        707,
        301,
        714,
        145,
        490,
        558,
        935,
        933,
        695,
        733,
        214,
        965,
        503,
        306,
        184,
        317,
        898,
        962,
        146,
        654,
        478,
        460,
        653,
        297,
        703,
        409,
        958,
        264,
        937,
        46,
        413,
        389,
        454,
        78,
        32,
        948,
        91,
        485,
        970,
        578,
        595,
        98,
        396,
        530,
        549,
        917,
        89,
        516,
        319,
        524,
        250,
        499,
        188,
        201,
        820,
        645,
        555,
        928,
        486,
        832,
        924,
        87,
        741,
        261,
        467,
        497,
        152,
        897,
        829,
        869,
        240,
        269,
        618,
        651,
        135,
        725,
        947,
        681,
        537,
        149,
        784,
        459,
        189,
        601,
        862,
        349,
        342,
        556,
        684,
        997,
        225,
        648,
        426,
        462,
        622,
        700,
        586,
        791,
        857,
        22,
        416,
        34,
        561,
        370,
        702,
        755,
        479,
        414,
        157,
        683,
        600,
        37,
        585,
        693
    ],
    "Global Optimum": 0,
    "Algorithm": "Genetic algorithm",
    "Parameters": {
        "population": 30,
        "offspring": 30,
        "mutation probability": 0.001,
        "crossover probability": 0.9
    },
    "Fitness": 1279535,
    "Solution": [
        974,
        104,
        286,
        21,
        61,
        847,
        464,
        507,
        540,
        77,
        52,
        325,
        92,
        207,
        776,
        892,
        822,
        244,
        324,
        619,
        350,
        466,
        940,
        294,
        623,
        212,
        338,
        270,
        750,
        25,
        722,
        826,
        109,
        840,
        893,
        175,
        176,
        38,
        737,
        108,
        29,
        170,
        656,
        220,
        99,
        299,
        819,
        139,
        688,
        850,
        602,
        754,
        288,
        391,
        394,
        195,
        65,
        851,
        289,
        279,
        564,
        115,
        385,
        753,
        333,
        734,
        671,
        424,
        554,
        588,
        673,
        281,
        95,
        756,
        639,
        365,
        406,
        82,
        794,
        727,
        285,
        666,
        715,
        318,
        93,
        6,
        786,
        861,
        375,
        448,
        100,
        841,
        562,
        629,
        402,
        75,
        953,
        541,
        58,
        374,
        905,
        952,
        873,
        429,
        539,
        920,
        161,
        587,
        158,
        614,
        771,
        968,
        96,
        216,
        672,
        536,
        763,
        203,
        238,
        209,
        977,
        513,
        531,
        265,
        471,
        963,
        219,
        248,
        343,
        620,
        475,
        463,
        418,
        442,
        49,
        314,
        604,
        193,
        137,
        713,
        547,
        515,
        603,
        605,
        557,
        275,
        966,
        263,
        647,
        101,
        906,
        736,
        186,
        355,
        655,
        90,
        369,
        542,
        18,
        927,
        420,
        706,
        113,
        792,
        484,
        808,
        528,
        634,
        242,
        643,
        373,
        371,
        678,
        991,
        438,
        912,
        589,
        816,
        164,
        956,
        296,
        262,
        961,
        692,
        663,
        954,
        383,
        896,
        509,
        628,
        626,
        773,
        71,
        904,
        273,
        813,
        910,
        367,
        976,
        941,
        834,
        590,
        476,
        305,
        252,
        980,
        521,
        206,
        978,
        253,
        495,
        982,
        458,
        73,
        802,
        427,
        280,
        759,
        984,
        584,
        803,
        85,
        227,
        793,
        718,
        726,
        633,
        72,
        67,
        660,
        344,
        234,
        508,
        320,
        204,
        751,
        616,
        987,
        88,
        764,
        134,
        766,
        527,
        923,
        916,
        147,
        311,
        323,
        894,
        687,
        356,
        938,
        752,
        644,
        698,
        526,
        120,
        568,
        488,
        125,
        918,
        732,
        441,
        943,
        821,
        895,
        806,
        789,
        701,
        529,
        447,
        315,
        469,
        852,
        258,
        708,
        217,
        757,
        379,
        532,
        730,
        347,
        334,
        630,
        880,
        881,
        949,
        798,
        519,
        403,
        979,
        998,
        436,
        612,
        668,
        283,
        670,
        352,
        274,
        127,
        477,
        205,
        423,
        151,
        919,
        235,
        664,
        1,
        360,
        827,
        156,
        231,
        401,
        799,
        728,
        627,
        631,
        14,
        40,
        341,
        470,
        232,
        842,
        178,
        141,
        830,
        907,
        112,
        514,
        812,
        300,
        361,
        456,
        680,
        641,
        452,
        598,
        567,
        126,
        30,
        787,
        936,
        996,
        277,
        942,
        559,
        353,
        520,
        348,
        615,
        266,
        62,
        404,
        640,
        16,
        35,
        328,
        740,
        473,
        607,
        828,
        846,
        376,
        930,
        872,
        900,
        694,
        742,
        865,
        148,
        676,
        839,
        36,
        709,
        246,
        859,
        474,
        335,
        581,
        891,
        398,
        114,
        765,
        243,
        173,
        870,
        27,
        659,
        608,
        368,
        560,
        69,
        811,
        200,
        268,
        985,
        972,
        3,
        181,
        41,
        801,
        359,
        260,
        593,
        731,
        397,
        165,
        182,
        236,
        744,
        546,
        121,
        835,
        393,
        931,
        444,
        658,
        710,
        196,
        64,
        636,
        525,
        155,
        215,
        544,
        378,
        11,
        33,
        132,
        711,
        596,
        5,
        810,
        313,
        775,
        635,
        435,
        697,
        690,
        685,
        646,
        211,
        472,
        572,
        762,
        874,
        577,
        855,
        807,
        788,
        254,
        53,
        960,
        417,
        106,
        0,
        171,
        405,
        169,
        592,
        989,
        316,
        790,
        738,
        720,
        255,
        944,
        675,
        94,
        579,
        450,
        669,
        506,
        884,
        580,
        392,
        408,
        566,
        412,
        613,
        929,
        986,
        565,
        782,
        339,
        637,
        307,
        116,
        174,
        177,
        667,
        864,
        271,
        390,
        410,
        110,
        946,
        221,
        800,
        399,
        804,
        747,
        247,
        20,
        26,
        298,
        187,
        278,
        191,
        489,
        449,
        780,
        552,
        326,
        345,
        455,
        501,
        682,
        222,
        363,
        434,
        845,
        162,
        925,
        866,
        395,
        102,
        290,
        308,
        796,
        781,
        548,
        43,
        433,
        415,
        843,
        56,
        259,
        632,
        131,
        574,
        649,
        202,
        973,
        876,
        39,
        24,
        197,
        883,
        496,
        13,
        293,
        84,
        59,
        461,
        583,
        674,
        498,
        256,
        42,
        387,
        133,
        237,
        276,
        887,
        777,
        890,
        854,
        533,
        650,
        551,
        848,
        576,
        2,
        743,
        836,
        79,
        543,
        609,
        990,
        805,
        60,
        712,
        959,
        908,
        76,
        909,
        282,
        611,
        354,
        844,
        662,
        190,
        510,
        779,
        767,
        210,
        487,
        194,
        123,
        610,
        303,
        517,
        425,
        534,
        875,
        331,
        51,
        922,
        993,
        967,
        955,
        926,
        882,
        569,
        638,
        386,
        443,
        124,
        553,
        142,
        699,
        218,
        440,
        885,
        863,
        154,
        932,
        122,
        719,
        901,
        7,
        969,
        815,
        748,
        625,
        130,
        686,
        249,
        451,
        950,
        198,
        431,
        358,
        999,
        185,
        17,
        778,
        735,
        913,
        575,
        213,
        74,
        833,
        824,
        934,
        245,
        362,
        535,
        512,
        337,
        9,
        419,
        327,
        23,
        783,
        224,
        407,
        599,
        903,
        494,
        384,
        994,
        192,
        860,
        377,
        50,
        15,
        322,
        582,
        729,
        480,
        661,
        621,
        330,
        223,
        951,
        717,
        538,
        80,
        445,
        483,
        411,
        502,
        849,
        758,
        364,
        55,
        103,
        332,
        878,
        295,
        642,
        570,
        888,
        858,
        504,
        129,
        749,
        921,
        823,
        144,
        136,
        400,
        594,
        83,
        382,
        160,
        138,
        257,
        12,
        665,
        817,
        522,
        988,
        774,
        230,
        871,
        550,
        366,
        428,
        761,
        48,
        81,
        809,
        143,
        563,
        118,
        971,
        721,
        111,
        518,
        47,
        983,
        915,
        617,
        545,
        380,
        739,
        241,
        745,
        500,
        853,
        838,
        481,
        723,
        340,
        465,
        825,
        493,
        769,
        239,
        45,
        70,
        172,
        351,
        422,
        867,
        724,
        772,
        704,
        372,
        229,
        856,
        902,
        287,
        591,
        992,
        107,
        233,
        814,
        439,
        167,
        284,
        140,
        911,
        597,
        179,
        746,
        877,
        159,
        964,
        19,
        837,
        797,
        914,
        468,
        208,
        437,
        180,
        453,
        329,
        677,
        63,
        267,
        150,
        44,
        57,
        304,
        312,
        128,
        606,
        336,
        624,
        10,
        4,
        818,
        163,
        768,
        357,
        310,
        31,
        8,
        573,
        105,
        421,
        199,
        228,
        302,
        119,
        975,
        795,
        432,
        482,
        691,
        657,
        785,
        153,
        957,
        272,
        388,
        760,
        523,
        939,
        831,
        571,
        251,
        492,
        705,
        291,
        446,
        168,
        346,
        166,
        54,
        679,
        945,
        183,
        321,
        292,
        689,
        491,
        28,
        117,
        226,
        696,
        981,
        68,
        97,
        889,
        716,
        511,
        899,
        86,
        66,
        770,
        879,
        995,
        868,
        505,
        457,
        886,
        381,
        652,
        309,
        430,
        707,
        301,
        714,
        145,
        490,
        558,
        935,
        933,
        695,
        733,
        214,
        965,
        503,
        306,
        184,
        317,
        898,
        962,
        146,
        654,
        478,
        460,
        653,
        297,
        703,
        409,
        958,
        264,
        937,
        46,
        413,
        389,
        454,
        78,
        32,
        948,
        91,
        485,
        970,
        578,
        595,
        98,
        396,
        530,
        549,
        917,
        89,
        516,
        319,
        524,
        250,
        499,
        188,
        201,
        820,
        645,
        555,
        928,
        486,
        832,
        924,
        87,
        741,
        261,
        467,
        497,
        152,
        897,
        829,
        869,
        240,
        269,
        618,
        651,
        135,
        725,
        947,
        681,
        537,
        149,
        784,
        459,
        189,
        601,
        862,
        349,
        342,
        556,
        684,
        997,
        225,
        648,
        426,
        462,
        622,
        700,
        586,
        791,
        857,
        22,
        416,
        34,
        561,
        370,
        702,
        755,
        479,
        414,
        157,
        683,
        600,
        37,
        585,
        693
    ],
    "Nb of functions evaluations": 400020,
    "Computational time in seconds": 6672.780483722687,
    "Stopping criterion in evaluations": 400000
}